49, 545
703, 122
874, 263
332, 130
1240, 329
520, 361
893, 294
366, 453
1102, 482
298, 181
1191, 366
907, 246
933, 192
766, 394
837, 345
899, 349
1060, 187
1176, 185
859, 351
878, 215
550, 239
574, 469
1017, 285
462, 298
465, 223
570, 219
563, 116
643, 157
729, 113
1023, 495
1208, 450
553, 474
1068, 301
487, 113
929, 127
1136, 212
1233, 136
1028, 286
270, 216
969, 330
984, 217
1211, 365
810, 363
359, 332
331, 381
937, 486
900, 136
809, 440
1108, 230
1027, 224